(set-logic ALL)
(declare-fun var0 () String)
(assert (str.in_re var0 (re.++ (re.union (re.* (str.to_re "000")) (re.* (str.to_re "111"))) (re.++ (re.* (re.+ (str.to_re "22"))) (re.++ (re.* (re.+ (str.to_re "333"))) (re.++ (re.union (re.+ (str.to_re "44")) (re.+ (str.to_re "5"))) (re.++ (re.+ (re.* (str.to_re "66"))) (re.++ (re.* (re.+ (str.to_re "77"))) (re.++ (re.* (re.union (str.to_re "888") (str.to_re "9"))) (re.++ (re.* (re.* (str.to_re "aaa"))) (re.++ (re.+ (re.* (str.to_re "bb"))) (re.++ (re.* (re.+ (str.to_re "c"))) (re.++ (re.+ (re.+ (str.to_re "d"))) (re.++ (re.union (re.+ (str.to_re "e")) (re.+ (str.to_re "fff"))) (re.++ (re.+ (re.union (str.to_re "ggg") (str.to_re "hh"))) (re.++ (re.union (re.+ (str.to_re "iii")) (re.+ (str.to_re "jj"))) (re.++ (re.* (re.+ (str.to_re "k"))) (re.++ (re.* (re.union (str.to_re "l") (str.to_re "mmm"))) (re.++ (re.union (re.union (str.to_re "nnn") (str.to_re "o")) (re.union (str.to_re "p") (str.to_re "q"))) (re.++ (re.+ (re.union (str.to_re "rrr") (str.to_re "ss"))) (re.++ (re.union (re.* (str.to_re "t")) (re.* (str.to_re "uuu"))) (re.++ (re.+ (re.union (str.to_re "v") (str.to_re "ww"))) (re.++ (re.* (re.union (str.to_re "xxx") (str.to_re "yy"))) (re.++ (re.* (re.+ (str.to_re "zzz"))) (re.++ (re.union (re.+ (str.to_re "AA")) (re.+ (str.to_re "BBB"))) (re.++ (re.union (re.* (str.to_re "CC")) (re.* (str.to_re "DD"))) (re.++ (re.union (re.union (str.to_re "E") (str.to_re "F")) (re.union (str.to_re "GG") (str.to_re "HH"))) (re.++ (re.* (re.+ (str.to_re "II"))) (re.++ (re.union (re.+ (str.to_re "J")) (re.+ (str.to_re "KK"))) (re.++ (re.* (re.+ (str.to_re "LLL"))) (re.++ (re.union (re.union (str.to_re "MM") (str.to_re "NN")) (re.union (str.to_re "OOO") (str.to_re "PPP"))) (re.++ (re.+ (re.union (str.to_re "Q") (str.to_re "RRR"))) (re.++ (re.+ (re.union (str.to_re "SS") (str.to_re "T"))) (re.++ (re.+ (re.* (str.to_re "U"))) (re.++ (re.union (re.union (str.to_re "VVV") (str.to_re "W")) (re.union (str.to_re "XX") (str.to_re "YY"))) (re.++ (re.* (re.+ (str.to_re "Z"))) (re.++ (re.union (re.+ (str.to_re "!!")) (re.+ (str.to_re """"))) (re.++ (re.union (re.* (str.to_re "###")) (re.* (str.to_re "$$"))) (re.++ (re.* (re.+ (str.to_re "%%"))) (re.++ (re.union (re.union (str.to_re "&&&") (str.to_re "'''")) (re.union (str.to_re "(") (str.to_re "))"))) (re.+ (re.* (str.to_re "**")))))))))))))))))))))))))))))))))))))))))))
(check-sat)